qbf_easy_train/easy_612_SAT.qdimacs
p cnf 19 44
a 8 4 0
e 1 2 3 5 6 7 9 10 11 12 13 14 15 16 17 18 19 0
-1 -2 -3 0
1 2 -3 0
-1 2 3 0
1 -2 3 0
6 -4 0
6 5 0
4 -5 -6 0
7 2 0
7 6 0
-2 -6 -7 0
3 7 -8 0
-3 -7 -8 0
3 -7 8 0
-3 7 8 0
-11 -9 0
-11 10 0
9 -10 11 0
-12 -8 0
-12 11 0
8 -11 12 0
14 13 0
14 -5 0
-13 5 -14 0
-2 15 -16 0
2 -15 -16 0
-2 -15 16 0
2 15 16 0
15 16 -17 0
-15 -16 -17 0
15 -16 17 0
-15 16 17 0
14 -17 -18 0
-14 17 -18 0
14 17 18 0
-14 -17 18 0
12 -18 -19 0
-12 18 -19 0
12 18 19 0
-12 -18 19 0
5 9 -12 -3 0
-12 -19 4 -7 -11 0
-2 1 4 -5 6 19 3 0
2 18 15 -7 3 -8 0
19 0
