sat_easy_train/easy_612_SAT.dimacs
p cnf 147 509
3 1 0
3 2 0
-1 -2 -3 0
6 4 0
6 -5 0
-4 5 -6 0
7 3 0
7 -6 0
-3 6 -7 0
-10 -8 0
-10 -9 0
8 9 10 0
-11 -12 -13 0
11 12 -13 0
-11 12 13 0
11 -12 13 0
-13 -14 -15 0
13 14 -15 0
-13 14 15 0
13 -14 15 0
15 16 -17 0
-15 -16 -17 0
15 -16 17 0
-15 16 17 0
-10 -17 -18 0
10 17 -18 0
-10 17 18 0
10 -17 18 0
20 13 0
20 -19 0
-13 19 -20 0
21 18 0
21 -20 0
-18 20 -21 0
-23 21 0
-23 -22 0
-21 22 23 0
-7 -23 -24 0
7 23 -24 0
-7 23 24 0
7 -23 24 0
26 25 0
26 1 0
-25 -1 -26 0
-27 15 0
-27 26 0
-15 -26 27 0
29 1 0
29 -28 0
-1 28 -29 0
30 29 0
30 29 0
-29 -30 0
31 30 0
31 -4 0
-30 4 -31 0
32 9 0
32 4 0
-9 -4 -32 0
-33 18 0
-33 -32 0
-18 32 33 0
-34 33 0
-34 16 0
-33 -16 34 0
35 -34 0
35 -14 0
34 14 -35 0
36 31 0
36 35 0
-31 -35 -36 0
37 -8 0
37 -1 0
8 1 -37 0
36 37 -38 0
-36 -37 -38 0
36 -37 38 0
-36 37 38 0
39 28 0
39 29 0
-28 -29 -39 0
-40 13 0
-40 39 0
-13 -39 40 0
41 3 0
41 4 0
-3 -4 -41 0
42 40 0
42 -41 0
-40 41 -42 0
28 -42 -43 0
-28 42 -43 0
28 42 43 0
-28 -42 43 0
44 -43 0
44 -14 0
43 14 -44 0
-45 -20 0
-45 -17 0
20 17 45 0
-28 13 -46 0
28 -13 -46 0
-28 -13 46 0
28 13 46 0
-47 -45 0
-47 -46 0
45 46 47 0
44 -47 -48 0
-44 47 -48 0
44 47 48 0
-44 -47 48 0
-49 -38 0
-49 48 0
38 -48 49 0
-50 27 0
-50 49 0
-27 -49 50 0
24 -50 -51 0
-24 50 -51 0
24 50 51 0
-24 -50 51 0
52 -4 0
52 -25 0
4 25 -52 0
-19 -52 -53 0
19 52 -53 0
-19 52 53 0
19 -52 53 0
-54 53 0
-54 16 0
-53 -16 54 0
-54 42 -55 0
54 -42 -55 0
-54 -42 55 0
54 42 55 0
-56 -42 0
-56 -12 0
42 12 56 0
57 56 0
57 18 0
-56 -18 -57 0
-26 -57 -58 0
26 57 -58 0
-26 57 58 0
26 -57 58 0
-59 55 0
-59 -58 0
-55 58 59 0
60 -15 0
60 19 0
15 -19 -60 0
-61 -60 0
-61 -13 0
60 13 61 0
14 61 -62 0
-14 -61 -62 0
14 -61 62 0
-14 61 62 0
63 -10 0
63 -62 0
10 62 -63 0
-64 59 0
-64 63 0
-59 -63 64 0
45 21 -65 0
-45 -21 -65 0
45 -21 65 0
-45 21 65 0
66 65 0
66 25 0
-65 -25 -66 0
67 16 0
67 4 0
-16 -4 -67 0
-68 -67 0
-68 42 0
67 -42 68 0
-68 -8 -69 0
68 8 -69 0
-68 8 69 0
68 -8 69 0
-66 -69 -70 0
66 69 -70 0
-66 69 70 0
66 -69 70 0
-71 -64 0
-71 -70 0
64 70 71 0
-5 -2 -72 0
5 2 -72 0
-5 2 72 0
5 -2 72 0
73 12 0
73 34 0
-12 -34 -73 0
72 73 -74 0
-72 -73 -74 0
72 -73 74 0
-72 73 74 0
-15 -6 -75 0
15 6 -75 0
-15 6 75 0
15 -6 75 0
74 75 -76 0
-74 -75 -76 0
74 -75 76 0
-74 75 76 0
-71 76 -77 0
71 -76 -77 0
-71 -76 77 0
71 76 77 0
-78 -51 0
-78 77 0
51 -77 78 0
-1 52 -79 0
1 -52 -79 0
-1 -52 79 0
1 52 79 0
79 39 -80 0
-79 -39 -80 0
79 -39 80 0
-79 39 80 0
-19 -81 -82 0
19 81 -82 0
-19 81 82 0
19 -81 82 0
19 29 -84 0
-19 -29 -84 0
19 -29 84 0
-19 29 84 0
84 21 -85 0
-84 -21 -85 0
84 -21 85 0
-84 21 85 0
83 85 -86 0
-83 -85 -86 0
83 -85 86 0
-83 85 86 0
-26 39 -87 0
26 -39 -87 0
-26 -39 87 0
26 39 87 0
88 -87 0
88 -26 0
87 26 -88 0
89 -88 0
89 -1 0
88 1 -89 0
-39 -89 -90 0
39 89 -90 0
-39 89 90 0
39 -89 90 0
-91 86 0
-91 -90 0
-86 90 91 0
-57 -10 -92 0
57 10 -92 0
-57 10 92 0
57 -10 92 0
-53 -92 -93 0
53 92 -93 0
-53 92 93 0
53 -92 93 0
-94 -91 0
-94 -93 0
91 93 94 0
21 42 -95 0
-21 -42 -95 0
21 -42 95 0
-21 42 95 0
96 95 0
96 -40 0
-95 40 -96 0
97 -94 0
97 -96 0
94 96 -97 0
-82 97 -98 0
82 -97 -98 0
-82 -97 98 0
82 97 98 0
-41 12 -99 0
41 -12 -99 0
-41 -12 99 0
41 12 99 0
9 -32 -100 0
-9 32 -100 0
9 32 100 0
-9 -32 100 0
-101 -29 0
-101 -56 0
29 56 101 0
-102 100 0
-102 101 0
-100 -101 102 0
103 -99 0
103 102 0
99 -102 -103 0
98 103 -104 0
-98 -103 -104 0
98 -103 104 0
-98 103 104 0
-105 80 0
-105 104 0
-80 -104 105 0
106 -15 0
106 -4 0
15 4 -106 0
107 -84 0
107 -106 0
84 106 -107 0
108 -1 0
108 -22 0
1 22 -108 0
109 26 0
109 108 0
-26 -108 -109 0
-110 -107 0
-110 109 0
107 -109 110 0
111 3 0
111 -13 0
-3 13 -111 0
110 -111 -112 0
-110 111 -112 0
110 111 112 0
-110 -111 112 0
113 -67 0
113 -60 0
67 60 -113 0
-4 -40 -114 0
4 40 -114 0
-4 40 114 0
4 -40 114 0
-115 68 0
-115 114 0
-68 -114 115 0
116 -21 0
116 -41 0
21 41 -116 0
-117 115 0
-117 -116 0
-115 116 117 0
118 113 0
118 117 0
-113 -117 -118 0
119 16 0
119 60 0
-16 -60 -119 0
25 119 -120 0
-25 -119 -120 0
25 -119 120 0
-25 119 120 0
121 20 0
121 -120 0
-20 120 -121 0
121 85 -122 0
-121 -85 -122 0
121 -85 122 0
-121 85 122 0
123 -118 0
123 -122 0
118 122 -123 0
-14 -4 -124 0
14 4 -124 0
-14 4 124 0
14 -4 124 0
-124 6 -125 0
124 -6 -125 0
-124 -6 125 0
124 6 125 0
-126 5 0
-126 -125 0
-5 125 126 0
127 -123 0
127 -126 0
123 126 -127 0
-25 -16 -128 0
25 16 -128 0
-25 16 128 0
25 -16 128 0
-129 128 0
-129 2 0
-128 -2 129 0
-130 127 0
-130 129 0
-127 -129 130 0
-131 -112 0
-131 -130 0
112 130 131 0
105 131 -132 0
-105 -131 -132 0
105 -131 132 0
-105 131 132 0
-133 29 0
-133 -45 0
-29 45 133 0
134 -87 0
134 2 0
87 -2 -134 0
-135 -134 0
-135 -106 0
134 106 135 0
-136 3 0
-136 34 0
-3 -34 136 0
42 25 -137 0
-42 -25 -137 0
42 -25 137 0
-42 25 137 0
-52 -9 -138 0
52 9 -138 0
-52 9 138 0
52 -9 138 0
-92 87 -139 0
92 -87 -139 0
-92 -87 139 0
92 87 139 0
140 53 0
140 139 0
-53 -139 -140 0
-141 138 0
-141 -140 0
-138 140 141 0
-142 -137 0
-142 -141 0
137 141 142 0
-143 -136 0
-143 142 0
136 -142 143 0
-144 135 0
-144 143 0
-135 -143 144 0
-145 133 0
-145 144 0
-133 -144 145 0
-146 -132 0
-146 145 0
132 -145 146 0
-78 -146 -147 0
78 146 -147 0
-78 146 147 0
78 -146 147 0
-39 -19 138 47 -35 17 0
11 -55 6 -107 -17 0
-6 48 -104 0
-110 121 -36 117 -23 -100 0
132 76 110 -20 0
-116 -32 26 -140 22 0
-131 18 142 -68 97 0
68 -108 22 126 114 0
-120 97 0
26 -135 87 0
-10 26 83 -130 -141 0
-94 -134 136 0
47 -146 -53 109 83 0
-30 -109 68 0
93 83 42 130 9 133 0
-122 -108 131 0
-21 52 0
-67 -87 -23 68 64 0
73 89 0
-143 126 -134 -23 90 0
-75 114 23 -20 -5 0
30 -127 11 0
-66 -41 -79 -70 -10 0
-34 133 0
131 -143 0
-64 99 0
-8 12 -74 0
-114 -13 -146 -93 0
-87 95 -102 0
-91 129 145 -52 0
12 -3 -114 0
-114 119 -97 -142 0
-54 102 -98 0
-140 93 -9 0
-65 15 123 0
54 -120 -144 -35 -123 86 0
59 -97 0
-88 -11 -128 27 -147 41 0
49 19 -84 -89 -20 46 0
-10 -19 -92 129 0
-118 103 -77 -30 -46 0
-78 -139 92 -59 0
-140 -125 -121 -58 -104 0
-107 -47 -1 -58 0
-87 -35 0
137 95 0
35 -68 0
-31 -9 0
-26 86 42 0
62 111 142 147 -115 -134 0
3 -24 -135 137 112 133 0
110 34 68 -58 73 0
-7 -2 -37 110 -75 -23 0
-64 -43 -110 -8 0
101 -111 125 -108 58 0
110 -10 38 52 -64 0
-143 -78 -72 137 64 0
-39 -119 65 -31 0
127 147 -100 -73 0
22 111 46 -51 0
-99 10 0
-6 29 95 11 108 141 0
22 81 -12 0
-85 122 78 0
62 2 -26 0
-84 119 -13 0
147 0
